language ESSENCE' 1.0
$ Minion SolverNodes: 1
$ Minion SolverTotalTime: 0.000354
$ Minion SolverTimeOut: 0
$ Savile Row TotalTime: 0.609
letting field be [[5, 3, 4, 6, 7, 8, 9, 1, 2;int(1..9)], 
[6, 7, 2, 1, 9, 5, 3, 4, 8;int(1..9)], 
[1, 9, 8, 3, 4, 2, 5, 6, 7;int(1..9)], 
[8, 5, 9, 7, 6, 1, 4, 2, 3;int(1..9)], 
[4, 2, 6, 8, 5, 3, 7, 9, 1;int(1..9)], 
[7, 1, 3, 9, 2, 4, 8, 5, 6;int(1..9)], 
[9, 6, 1, 5, 3, 7, 2, 8, 4;int(1..9)], 
[2, 8, 7, 4, 1, 9, 6, 3, 5;int(1..9)], 
[3, 4, 5, 2, 8, 6, 1, 7, 9;int(1..9)];int(1..9)]
